(set-logic QF_BV)
(define-fun implies ((p Bool) (q Bool)) Bool (or (not p) q))

(declare-const DecISIonAL Bool)
(declare-const BusinessDrivers Bool)
(declare-const Customerssegmentationanddebugging Bool)
(declare-const Planningandbudgetingformarketing Bool)
(declare-const Managedataandlists Bool)
(declare-const Marketinganalysis Bool)
(declare-const Campaignmanagement Bool)
(declare-const Easemarketingandadvertisingtasks Bool)
(declare-const Managepotentialcustomersandresponses Bool)
(declare-const Reducesalescycles Bool)
(declare-const Increasesalesclosurerates Bool)
(declare-const Improvecustomersretention Bool)
(declare-const Implementanewsalesprocess Bool)
(declare-const Managecustomerinformation Bool)
(declare-const Managecustomercases Bool)
(declare-const Recordcustomerserviceshistory Bool)
(declare-const Increasecustomersbase Bool)
(declare-const Implementacustomerserviceprocess Bool)
(declare-const Improveclientsknowledge Bool)
(declare-const Measurecustomerssatisfaction Bool)
(declare-const Humanresourcescontrol Bool)
(declare-const Newprocessesofhumanresources Bool)
(declare-const Recruitment Bool)
(declare-const Biodata_cv Bool)
(declare-const Positionsanalysis_organizationalstructure Bool)
(declare-const Payrollandsalariesmanagement Bool)
(declare-const Performanceevaluation Bool)
(declare-const Educationandtraning Bool)
(declare-const Personalwellness_Benefits Bool)
(declare-const Workplacehealth Bool)
(declare-const Processesandorganizationchartmodeling Bool)
(declare-const Newfinancialprocesses Bool)
(declare-const Implementcontrolsoverfinancialprocesses Bool)
(declare-const Accountmanagement Bool)
(declare-const Accountspayablemanagement_Providers Bool)
(declare-const Costingsystems Bool)
(declare-const Fixedassetsfinancialmanagement Bool)
(declare-const Bankreconciliationmanagement Bool)
(declare-const Investmentcontrol Bool)
(declare-const Financialobligationmanagement Bool)
(declare-const Treasury Bool)
(declare-const Analyticalaccounting Bool)
(declare-const Budgetcontrolandmanagement Bool)
(declare-const Capitalassetsmanagement Bool)
(declare-const Stockmanagement Bool)
(declare-const Storagemanagement Bool)
(declare-const Purchasemanagement Bool)
(declare-const Fixedassetsmanagement Bool)
(declare-const Foreigntrade Bool)
(declare-const Insurance Bool)
(declare-const Productionordersmanagement Bool)
(declare-const Purchaseordersmanagement Bool)
(declare-const Capacityneedsplanning Bool)
(declare-const Supplyplanning Bool)
(declare-const Decreasedeliverytime Bool)
(declare-const Integrationwithproviders Bool)
(declare-const Providersmanagement Bool)
(declare-const Rawmaterialsmanagement Bool)
(declare-const Winerymanagement Bool)
(declare-const Performcostscontrol Bool)
(declare-const Orderanddeliverymanagement Bool)
(declare-const Contactsmanagement Bool)
(declare-const Modifyworkflowprocesses Bool)
(declare-const Improveresponsiveness Bool)
(declare-const Budgetmanagement Bool)
(declare-const Createandconsolidatereports Bool)
(declare-const Searchtrendsandrelations Bool)
(declare-const Shareknowledge Bool)
(declare-const Organizeserviceresources Bool)
(declare-const Billingandreturn Bool)
(declare-const Portfolio Bool)
(declare-const Pricesanddiscountsmanagement Bool)
(declare-const Promotionsmanagement Bool)
(declare-const Feesandincentivesmanagement Bool)
(declare-const Commercialvisitmanagement Bool)
(declare-const Importsandexports Bool)
(declare-const Servicecontractmanagement Bool)
(declare-const Budgetcostsandtime Bool)
(declare-const Automatebilling Bool)
(declare-const Predictavailabilities Bool)
(declare-const Costsandconsumptionstracking Bool)
(declare-const Plancapacities Bool)
(declare-const Planandmanagewineryandstoragecapacity Bool)
(declare-const Merchandisetransportmanagement Bool)
(declare-const Internationaltransportlogistics Bool)
(declare-const Providerrelationsmanagement Bool)
(declare-const Demandmanagement Bool)
(declare-const EnterpiseInformationSystemandCapabilities Bool)
(declare-const CustomerRelationshipManagement_CRM Bool)
(declare-const CRM_Marketingmodule Bool)
(declare-const CRM_Salesmodule Bool)
(declare-const CRM_Customersmodule Bool)
(declare-const EnterpriseResourcePlanning_ERP Bool)
(declare-const ERP_Humanresourcesmodule Bool)
(declare-const ERP_Financialmodule Bool)
(declare-const ERP_Administrativemodule Bool)
(declare-const ERP_Productionmodule Bool)
(declare-const ERP_Clientsmodule Bool)
(declare-const ERP_Supplymanagementmodule Bool)
(declare-const ERP_BusinessIntelligencemodule Bool)
(declare-const ERP_Marketingandsalesmodule Bool)
(declare-const ERP_Providersmanagementmodule Bool)
(declare-const SupplyChainManagement_SCM Bool)
(declare-const ImplementationType Bool)
(declare-const Adquireanewsystem Bool)
(declare-const Adaptanexistingsystem Bool)
(declare-const Outsourcing Bool)
(declare-const Outsourcecustomization Bool)
(declare-const Outsourcemostofthedevelopmentandintegration Bool)
(declare-const Outsourcethemanagementofacompletebusinessprocess Bool)
(declare-const Outsourcetheimplementationprojectmanagement Bool)
(declare-const SolutionType Bool)
(declare-const Commercial Bool)
(declare-const OpenSource Bool)
(declare-const DeploymentModel Bool)
(declare-const Onpremise Bool)
(declare-const SofwareasaService_SaaS Bool)
(declare-const InfrastructureasaService_IaaS Bool)
(declare-const ImplementationModel Bool)
(declare-const BigBang Bool)
(declare-const Implementationbyphases Bool)
(declare-const Implementationbyprocesses Bool)
(declare-const MaintenanceModel Bool)
(declare-const Providercontract Bool)
(declare-const Specializedprovidercontract Bool)
(declare-const Internalmaintenance Bool)
(declare-const Nomaintenance Bool)
(declare-const EvaluationApproach Bool)
(declare-const RFP_Requestforproposal Bool)
(declare-const Externalconsultancy Bool)
(declare-const Internalevaluation Bool)
(declare-const TargetPlatform Bool)
(declare-const Systemsupportedonanexistingplatform Bool)
(declare-const Systemsupportedonanewplatform Bool)
(declare-const IntegrationApproach Bool)
(declare-const Middleware Bool)
(declare-const Owndevelopment Bool)
(declare-const Byprovider Bool)
(declare-const FinancingModel Bool)
(declare-const Ownresources Bool)
(declare-const Credit Bool)
(declare-const Leasing Bool)
(assert
(and DecISIonAL(and(=(or Customerssegmentationanddebugging Planningandbudgetingformarketing Managedataandlists Marketinganalysis Campaignmanagement Easemarketingandadvertisingtasks Managepotentialcustomersandresponses Reducesalescycles Increasesalesclosurerates Improvecustomersretention Implementanewsalesprocess Managecustomerinformation Managecustomercases Recordcustomerserviceshistory Increasecustomersbase Implementacustomerserviceprocess Improveclientsknowledge Measurecustomerssatisfaction Humanresourcescontrol Newprocessesofhumanresources Recruitment Biodata_cv Positionsanalysis_organizationalstructure Payrollandsalariesmanagement Performanceevaluation Educationandtraning Personalwellness_Benefits Workplacehealth Processesandorganizationchartmodeling Newfinancialprocesses Implementcontrolsoverfinancialprocesses Accountmanagement Accountspayablemanagement_Providers Costingsystems Fixedassetsfinancialmanagement Bankreconciliationmanagement Investmentcontrol Financialobligationmanagement Treasury Analyticalaccounting Budgetcontrolandmanagement Capitalassetsmanagement Stockmanagement Storagemanagement Purchasemanagement Fixedassetsmanagement Foreigntrade Insurance Productionordersmanagement Purchaseordersmanagement Capacityneedsplanning Supplyplanning Decreasedeliverytime Integrationwithproviders Providersmanagement Rawmaterialsmanagement Winerymanagement Performcostscontrol Orderanddeliverymanagement Contactsmanagement Modifyworkflowprocesses Improveresponsiveness Budgetmanagement Createandconsolidatereports Searchtrendsandrelations Shareknowledge Organizeserviceresources Billingandreturn Portfolio Pricesanddiscountsmanagement Promotionsmanagement Feesandincentivesmanagement Commercialvisitmanagement Importsandexports Servicecontractmanagement Budgetcostsandtime Automatebilling Predictavailabilities Costsandconsumptionstracking Plancapacities Planandmanagewineryandstoragecapacity Merchandisetransportmanagement Internationaltransportlogistics Providerrelationsmanagement Demandmanagement)
 BusinessDrivers)
(=(or CRM_Marketingmodule CRM_Salesmodule CRM_Customersmodule)
 CustomerRelationshipManagement_CRM)
(=(or ERP_Humanresourcesmodule ERP_Financialmodule ERP_Administrativemodule ERP_Productionmodule ERP_Clientsmodule ERP_Supplymanagementmodule ERP_BusinessIntelligencemodule ERP_Marketingandsalesmodule ERP_Providersmanagementmodule)
 EnterpriseResourcePlanning_ERP)
(=(or CustomerRelationshipManagement_CRM EnterpriseResourcePlanning_ERP SupplyChainManagement_SCM)
 EnterpiseInformationSystemandCapabilities)
(and(implies(or Adquireanewsystem Adaptanexistingsystem)
 ImplementationType)
(implies ImplementationType(or(and Adquireanewsystem(not Adaptanexistingsystem))
(and(not Adquireanewsystem)
 Adaptanexistingsystem))))
(and(implies(or Outsourcecustomization Outsourcemostofthedevelopmentandintegration Outsourcethemanagementofacompletebusinessprocess Outsourcetheimplementationprojectmanagement)
 Outsourcing)
(implies Outsourcing(or(and Outsourcecustomization(not Outsourcemostofthedevelopmentandintegration)
(not Outsourcethemanagementofacompletebusinessprocess)
(not Outsourcetheimplementationprojectmanagement))
(and(not Outsourcecustomization)
 Outsourcemostofthedevelopmentandintegration(not Outsourcethemanagementofacompletebusinessprocess)
(not Outsourcetheimplementationprojectmanagement))
(and(not Outsourcecustomization)
(not Outsourcemostofthedevelopmentandintegration)
 Outsourcethemanagementofacompletebusinessprocess(not Outsourcetheimplementationprojectmanagement))
(and(not Outsourcecustomization)
(not Outsourcemostofthedevelopmentandintegration)
(not Outsourcethemanagementofacompletebusinessprocess)
 Outsourcetheimplementationprojectmanagement))))
(and(implies(or Commercial OpenSource)
 SolutionType)
(implies SolutionType(or(and Commercial(not OpenSource))
(and(not Commercial)
 OpenSource))))
(and(implies(or Onpremise SofwareasaService_SaaS InfrastructureasaService_IaaS)
 DeploymentModel)
(implies DeploymentModel(or(and Onpremise(not SofwareasaService_SaaS)
(not InfrastructureasaService_IaaS))
(and(not Onpremise)
 SofwareasaService_SaaS(not InfrastructureasaService_IaaS))
(and(not Onpremise)
(not SofwareasaService_SaaS)
 InfrastructureasaService_IaaS))))
(and(implies(or BigBang Implementationbyphases Implementationbyprocesses)
 ImplementationModel)
(implies ImplementationModel(or(and BigBang(not Implementationbyphases)
(not Implementationbyprocesses))
(and(not BigBang)
 Implementationbyphases(not Implementationbyprocesses))
(and(not BigBang)
(not Implementationbyphases)
 Implementationbyprocesses))))
(and(implies(or Providercontract Specializedprovidercontract Internalmaintenance Nomaintenance)
 MaintenanceModel)
(implies MaintenanceModel(or(and Providercontract(not Specializedprovidercontract)
(not Internalmaintenance)
(not Nomaintenance))
(and(not Providercontract)
 Specializedprovidercontract(not Internalmaintenance)
(not Nomaintenance))
(and(not Providercontract)
(not Specializedprovidercontract)
 Internalmaintenance(not Nomaintenance))
(and(not Providercontract)
(not Specializedprovidercontract)
(not Internalmaintenance)
 Nomaintenance))))
(and(implies(or RFP_Requestforproposal Externalconsultancy Internalevaluation)
 EvaluationApproach)
(implies EvaluationApproach(or(and RFP_Requestforproposal(not Externalconsultancy)
(not Internalevaluation))
(and(not RFP_Requestforproposal)
 Externalconsultancy(not Internalevaluation))
(and(not RFP_Requestforproposal)
(not Externalconsultancy)
 Internalevaluation))))
(and(implies(or Systemsupportedonanexistingplatform Systemsupportedonanewplatform)
 TargetPlatform)
(implies TargetPlatform(or(and Systemsupportedonanexistingplatform(not Systemsupportedonanewplatform))
(and(not Systemsupportedonanexistingplatform)
 Systemsupportedonanewplatform))))
(and(implies(or Middleware Owndevelopment Byprovider)
 IntegrationApproach)
(implies IntegrationApproach(or(and Middleware(not Owndevelopment)
(not Byprovider))
(and(not Middleware)
 Owndevelopment(not Byprovider))
(and(not Middleware)
(not Owndevelopment)
 Byprovider))))
(and(implies(or Ownresources Credit Leasing)
 FinancingModel)
(implies FinancingModel(or(and Ownresources(not Credit)
(not Leasing))
(and(not Ownresources)
 Credit(not Leasing))
(and(not Ownresources)
(not Credit)
 Leasing))))
(and(= BusinessDrivers DecISIonAL)
(= EnterpiseInformationSystemandCapabilities DecISIonAL)
(= ImplementationType DecISIonAL)
(= Outsourcing DecISIonAL)
(= SolutionType DecISIonAL)
(= DeploymentModel DecISIonAL)
(= ImplementationModel DecISIonAL)
(= MaintenanceModel DecISIonAL)
(= EvaluationApproach DecISIonAL)
(= TargetPlatform DecISIonAL)
(= IntegrationApproach DecISIonAL)
(= FinancingModel DecISIonAL)))
(and(or(not Commercialvisitmanagement)
 ERP_Marketingandsalesmodule)
(or(not Importsandexports)
 ERP_Marketingandsalesmodule)
(or(not Servicecontractmanagement)
 ERP_Marketingandsalesmodule)
(or(not Budgetcostsandtime)
 ERP_Providersmanagementmodule)
(or(not Fixedassetsfinancialmanagement)
 ERP_Financialmodule)
(or(not Investmentcontrol)
 ERP_Financialmodule)
(or(not Bankreconciliationmanagement)
 ERP_Financialmodule)
(or(not Treasury)
 ERP_Financialmodule)
(or(not Financialobligationmanagement)
 ERP_Financialmodule)
(or(not Budgetcontrolandmanagement)
 ERP_Financialmodule)
(or(not Analyticalaccounting)
 ERP_Financialmodule)
(or(not Improvecustomersretention)
 CRM_Salesmodule)
(or(not Implementanewsalesprocess)
 CRM_Salesmodule)
(or(not Managecustomerinformation)
 CRM_Customersmodule)
(or(not Capitalassetsmanagement)
 ERP_Financialmodule)
(or(not Stockmanagement)
 ERP_Administrativemodule)
(or(not Storagemanagement)
 ERP_Administrativemodule)
(or(not Automatebilling)
 ERP_Providersmanagementmodule)
(or(not Managedataandlists)
 CRM_Marketingmodule)
(or(not Costsandconsumptionstracking)
 ERP_Providersmanagementmodule)
(or(not Marketinganalysis)
 CRM_Marketingmodule)
(or(not Predictavailabilities)
 ERP_Providersmanagementmodule)
(or(not Campaignmanagement)
 CRM_Marketingmodule)
(or(not Easemarketingandadvertisingtasks)
 CRM_Marketingmodule)
(or(not Plancapacities)
 ERP_Providersmanagementmodule)
(or(not Managepotentialcustomersandresponses)
 CRM_Marketingmodule)
(or(not Reducesalescycles)
 CRM_Salesmodule)
(or(not Increasesalesclosurerates)
 CRM_Salesmodule)
(or(not Managecustomerinformation)
 ERP_Marketingandsalesmodule)
(or(not Recordcustomerserviceshistory)
 ERP_Marketingandsalesmodule)
(or(not Demandmanagement)
 SupplyChainManagement_SCM)
(or(not Campaignmanagement)
 ERP_Marketingandsalesmodule)
(or(not Accountmanagement)
 ERP_Financialmodule)
(or(not Recruitment)
 ERP_Humanresourcesmodule)
(or(not Organizeserviceresources)
 ERP_Marketingandsalesmodule)
(or(not Educationandtraning)
 ERP_Humanresourcesmodule)
(or(not Payrollandsalariesmanagement)
 ERP_Humanresourcesmodule)
(or(not Positionsanalysis_organizationalstructure)
 ERP_Humanresourcesmodule)
(or(not Biodata_cv)
 ERP_Humanresourcesmodule)
(or(not Implementcontrolsoverfinancialprocesses)
 ERP_Financialmodule)
(or(not Newfinancialprocesses)
 ERP_Financialmodule)
(or(not Processesandorganizationchartmodeling)
 ERP_Humanresourcesmodule)
(or(not Workplacehealth)
 ERP_Humanresourcesmodule)
(or(not Newprocessesofhumanresources)
 ERP_Humanresourcesmodule)
(or(not Accountspayablemanagement_Providers)
 ERP_Financialmodule)
(or(not Costingsystems)
 ERP_Financialmodule)
(or(not Portfolio)
 ERP_Marketingandsalesmodule)
(or(not Increasecustomersbase)
 CRM_Customersmodule)
(or(not Billingandreturn)
 ERP_Marketingandsalesmodule)
(or(not Managecustomercases)
 CRM_Customersmodule)
(or(not Recordcustomerserviceshistory)
 CRM_Customersmodule)
(or(not Measurecustomerssatisfaction)
 CRM_Customersmodule)
(or(not Feesandincentivesmanagement)
 ERP_Marketingandsalesmodule)
(or(not Humanresourcescontrol)
 ERP_Humanresourcesmodule)
(or(not Promotionsmanagement)
 ERP_Marketingandsalesmodule)
(or(not Implementacustomerserviceprocess)
 CRM_Customersmodule)
(or(not Pricesanddiscountsmanagement)
 ERP_Marketingandsalesmodule)
(or(not Improveclientsknowledge)
 CRM_Customersmodule)
(or(not Contactsmanagement)
 ERP_Clientsmodule)
(or(not Modifyworkflowprocesses)
 SupplyChainManagement_SCM)
(or(not Orderanddeliverymanagement)
 ERP_Productionmodule)
(or(not Rawmaterialsmanagement)
 ERP_Productionmodule)
(or(not Providersmanagement)
 ERP_Productionmodule)
(or(not Performcostscontrol)
 ERP_Productionmodule)
(or(not Winerymanagement)
 ERP_Productionmodule)
(or(not Planandmanagewineryandstoragecapacity)
 SupplyChainManagement_SCM)
(or(not Merchandisetransportmanagement)
 SupplyChainManagement_SCM)
(or(not Internationaltransportlogistics)
 SupplyChainManagement_SCM)
(or(not Providerrelationsmanagement)
 SupplyChainManagement_SCM)
(or(not Improveresponsiveness)
 SupplyChainManagement_SCM)
(or(not Customerssegmentationanddebugging)
 CRM_Marketingmodule)
(or(not Planningandbudgetingformarketing)
 CRM_Marketingmodule)
(or(not Searchtrendsandrelations)
 ERP_BusinessIntelligencemodule)
(or(not Shareknowledge)
 ERP_BusinessIntelligencemodule)
(or(not Budgetmanagement)
 ERP_BusinessIntelligencemodule)
(or(not Createandconsolidatereports)
 ERP_BusinessIntelligencemodule)
(or(not Modifyworkflowprocesses)
 ERP_Supplymanagementmodule)
(or(not Improveresponsiveness)
 ERP_Supplymanagementmodule)
(or(not Capacityneedsplanning)
 ERP_Productionmodule)
(or(not Purchaseordersmanagement)
 ERP_Productionmodule)
(or(not Productionordersmanagement)
 ERP_Productionmodule)
(or(not Insurance)
 ERP_Administrativemodule)
(or(not Foreigntrade)
 ERP_Administrativemodule)
(or(not Fixedassetsmanagement)
 ERP_Administrativemodule)
(or(not Purchasemanagement)
 ERP_Administrativemodule)
(or(not Decreasedeliverytime)
 ERP_Productionmodule)
(or(not Integrationwithproviders)
 ERP_Productionmodule)
(or(not Supplyplanning)
 ERP_Productionmodule)))
)